0 4972
2401 4858
4802 4748
7203 4654
9604 4580
12005 4528
14406 4477
16807 4432
19208 4349
21609 4307
24010 4279
26411 4243
28812 4230
31213 4223
33614 4206
36015 4176
38416 4154
40817 4148
43218 4124
45619 4119
48020 4115
50421 4111
52822 4099
55223 4096
57624 4093
